%%% static parameters %%%
timespan = 1;
Clients_N = [4000];
Demand_W = [15];
Lt0 = [4];
Lt1 = [4];
SS_ = [0.85];
DS_D = [20];
K = [200];
MA = [500];
HC = [0.05];
%%% dynamic parameters %%%
lost_ratio_sales_ret_th = 0.000795249768178111;
lost_ratio_sales_ret_w = 76;
lost_ratio_sales_dis_th = 0.000695016520428593;
lost_ratio_sales_dis_w = 25;
lost_ratio_sales_fac_th = 0.0006301677739686836;
lost_ratio_sales_fac_w = 17;
stock_customer_MA_mean_relative_th = 0.04773049888323533;
stock_customer_MA_mean_relative_w = 20;
stock_distributor_MA_mean_relative_th = 0.828388077200606;
stock_distributor_MA_mean_relative_w = 60;
stock_retailer_MA_mean_relative_th = 0.6645482777990244;
stock_retailer_MA_mean_relative_w = 42;
stock_factory_MA_mean_relative_th = 0.9468306796970966;
stock_factory_MA_mean_relative_w = 77;
